NAME : straight_line_constant_100_1_1_1.tsp
COMMENT : straight_line_constant_100_1_1_1.tsp
TYPE : TSP
DIMENSION : 100
EDGE_WEIGHT_TYPE : EUC_2D
NODE_COORD_SECTION
1 100.000000 100.000000
2 101.000000 101.000000
3 102.000000 102.000000
4 103.000000 103.000000
5 104.000000 104.000000
6 105.000000 105.000000
7 106.000000 106.000000
8 107.000000 107.000000
9 108.000000 108.000000
10 109.000000 109.000000
11 110.000000 110.000000
12 111.000000 111.000000
13 112.000000 112.000000
14 113.000000 113.000000
15 114.000000 114.000000
16 115.000000 115.000000
17 116.000000 116.000000
18 117.000000 117.000000
19 118.000000 118.000000
20 119.000000 119.000000
21 120.000000 120.000000
22 121.000000 121.000000
23 122.000000 122.000000
24 123.000000 123.000000
25 124.000000 124.000000
26 125.000000 125.000000
27 126.000000 126.000000
28 127.000000 127.000000
29 128.000000 128.000000
30 129.000000 129.000000
31 130.000000 130.000000
32 131.000000 131.000000
33 132.000000 132.000000
34 133.000000 133.000000
35 134.000000 134.000000
36 135.000000 135.000000
37 136.000000 136.000000
38 137.000000 137.000000
39 138.000000 138.000000
40 139.000000 139.000000
41 140.000000 140.000000
42 141.000000 141.000000
43 142.000000 142.000000
44 143.000000 143.000000
45 144.000000 144.000000
46 145.000000 145.000000
47 146.000000 146.000000
48 147.000000 147.000000
49 148.000000 148.000000
50 149.000000 149.000000
51 150.000000 150.000000
52 151.000000 151.000000
53 152.000000 152.000000
54 153.000000 153.000000
55 154.000000 154.000000
56 155.000000 155.000000
57 156.000000 156.000000
58 157.000000 157.000000
59 158.000000 158.000000
60 159.000000 159.000000
61 160.000000 160.000000
62 161.000000 161.000000
63 162.000000 162.000000
64 163.000000 163.000000
65 164.000000 164.000000
66 165.000000 165.000000
67 166.000000 166.000000
68 167.000000 167.000000
69 168.000000 168.000000
70 169.000000 169.000000
71 170.000000 170.000000
72 171.000000 171.000000
73 172.000000 172.000000
74 173.000000 173.000000
75 174.000000 174.000000
76 175.000000 175.000000
77 176.000000 176.000000
78 177.000000 177.000000
79 178.000000 178.000000
80 179.000000 179.000000
81 180.000000 180.000000
82 181.000000 181.000000
83 182.000000 182.000000
84 183.000000 183.000000
85 184.000000 184.000000
86 185.000000 185.000000
87 186.000000 186.000000
88 187.000000 187.000000
89 188.000000 188.000000
90 189.000000 189.000000
91 190.000000 190.000000
92 191.000000 191.000000
93 192.000000 192.000000
94 193.000000 193.000000
95 194.000000 194.000000
96 195.000000 195.000000
97 196.000000 196.000000
98 197.000000 197.000000
99 198.000000 198.000000
100 199.000000 199.000000
EOF